 MoS2-H.POSCAR                          
   1.00000000000000     
     3.1939844482727069   -0.0000000000017590   -0.0000000000000000
    -1.5969922240878205    2.7660716715167526   -0.0000000000000000
    -0.0000000000000000   -0.0000000000000000   19.0756751304624999
   Mo   S 
     1     2
Selective dynamics
Direct
  0.3333333222599251  0.6666666445407401  0.5000000124748354   T   T   T
  0.6666666610516003  0.3333333222703700  0.4183214762262722   T   T   T
  0.6666666610516003  0.3333333222703700  0.5816785237737280   T   T   T
 
  0.00000000E+00  0.00000000E+00  0.00000000E+00
  0.00000000E+00  0.00000000E+00  0.00000000E+00
  0.00000000E+00  0.00000000E+00  0.00000000E+00
