Comment: this KPOINTS file works
0           Automatic generation of k-points
Gamma
4 4 1
