 Surf-mp-48                             
   1.00000000000000     
     1.2548660444802913   -2.1734910153566553    0.0000000000000000
     1.2548660444802913    2.1734910153566553   -0.0000000000000000
    -0.0000000000000000    0.0000000000000000   11.6119250420062343
   N    B 
     2     2
Direct
  0.0000000000000000  0.0000000000000000  0.2231288147912737
 -0.0000000000000000  0.0000000000000000  0.5268711852087262
  0.3333329999917112  0.6666670000099160  0.5268044563079368
  0.3333329999917112  0.6666670000099160  0.2231955436920631
 
  0.00000000E+00  0.00000000E+00  0.00000000E+00
  0.00000000E+00  0.00000000E+00  0.00000000E+00
  0.00000000E+00  0.00000000E+00  0.00000000E+00
  0.00000000E+00  0.00000000E+00  0.00000000E+00
