Hf4 O8
1.0
   4.9599000000000002    0.0000000000000000    0.0000000000000003
  -0.0000000000000003    4.9783099999999996    0.0000000000000003
   0.0000000000000000    0.0000000000000000    5.1616200000000001
Hf O
4 8
direct
   0.7287400000000001    0.7500000000000000    0.0327100000000000 Hf
   0.2712599999999999    0.2500000000000000    0.9672900000000000 Hf
   0.2712599999999999    0.7500000000000000    0.5327100000000000 Hf
   0.7287400000000001    0.2500000000000000    0.4672900000000000 Hf
   0.8956800000000000    0.7500000000000000    0.3933900000000000 O
   0.1043200000000000    0.2500000000000000    0.6066100000000000 O
   0.1043200000000000    0.7500000000000000    0.8933900000000000 O
   0.8956800000000000    0.2500000000000000    0.1066100000000000 O
   0.4488900000000000    0.0000000000000000    0.2500000000000000 O
   0.5511100000000000    0.0000000000000000    0.7500000000000000 O
   0.5511100000000000    0.5000000000000000    0.7500000000000000 O
   0.4488900000000000    0.5000000000000000    0.2500000000000000 O
