#General
PREC = ACCURATE
ISTART= 0
ICHARG= 2
ENCUT = 520
EDIFF = 1E-8
EDIFFG = -0.001
LREAL = .F.
NPAR = 4
NSW= 0
IBRION = -1
ISIF = 2
ISMEAR = -5
SIGMA = 0.05
LCHARG = T
LWAVE = T
POTIM = 0.5
NEDOS = 2001
NBANDS = 72

#Magnetic properties
ISPIN=2
MAGMOM = 9*0.6 1*5
NELMIN = 6
LORBIT = 11
ISYM = 0
LMAXMIX = 4  ! for d-elements increase LMAXMIX to 4, f-elements: LMAXMIX = 6

