K-Spacing Value to Generate K-Mesh: 0.030
0
Gamma
  15  15   1
0.0  0.0  0.0
